db/data/270162997432718192459969147232878913513.z3.out
sat
-------------------
377.916661009
